130
# Ground state S0
Au     -0.232983000      1.462116000     -0.755839000
P      -0.747290000     -0.891784000      2.799108000
P      -1.259612000      2.495519000      1.074133000
N       -2.952319000      0.295074000      1.521134000
C       -2.898085000      1.721365000      1.604269000
H       -3.092274000      2.038343000      2.628517000
H       -3.663312000      2.184962000      0.981063000
C       -1.717005000      4.229462000      0.657079000
N       -0.863800000     -1.988981000      5.260476000
N       -0.551363000      1.772472000      3.703127000
C       -2.456135000      5.868047000     -0.907874000
H       -2.745139000      6.162660000     -1.909964000
N       -1.704231000      5.106420000      1.658132000
C       -2.446040000      6.787921000      0.128606000
H       -2.726740000      7.821213000     -0.033388000
C       -1.490662000      2.153392000      4.666135000
C       -2.575836000     -0.440066000      2.688919000
H       -3.121233000     -1.381778000      2.755263000
H       -2.826277000      0.132920000      3.581322000
C       -3.019853000     -1.737622000      0.173469000
H       -2.837580000     -2.362343000      1.036476000
C       -0.636010000     -4.639205000      4.452963000
H       -0.542790000     -5.671365000      4.135950000
C       -3.433015000     -1.645404000     -2.220627000
C       -3.384928000      2.939358000      6.632403000
C        0.095338000      0.499440000      3.750227000
H        0.202488000      0.142027000      4.774140000
H        1.092002000      0.579567000      3.314915000
C       -3.025321000      3.784472000      5.586582000
H       -3.481969000      4.767020000      5.512333000
C       -2.105814000      3.412004000      4.617549000
H       -1.895866000      4.108775000      3.814638000
C       -3.101496000     -0.342493000      0.290380000
C       -3.187677000     -2.362472000     -1.052909000
H       -3.119253000     -3.445157000     -1.093575000
C       -1.865715000      1.283408000      5.699787000
H       -1.467101000      0.277325000      5.759251000
C       -0.197334000      2.638136000      2.622378000
H        0.818253000      2.414772000      2.295999000
H       -0.232728000      3.688665000      2.912597000
C       -4.356789000      3.367156000      7.691436000
H       -4.919066000      2.516304000      8.082060000
H       -5.069311000      4.098911000      7.304997000
H       -3.839045000      3.831193000      8.537323000
C       -2.787773000      1.682078000      6.655663000
H       -3.054897000      0.978150000      7.438317000
C       -3.569909000     -2.327123000     -3.549519000
H       -4.307888000     -1.825829000     -4.178947000
H       -3.870302000     -3.369573000     -3.430559000
H       -2.622841000     -2.323710000     -4.101345000
C       -0.606413000     -3.614396000      3.517728000
H       -0.489221000     -3.824443000      2.461198000
C       -0.726575000     -2.307179000      3.974054000
C       -3.354963000      0.383305000     -0.883664000
H       -3.445083000      1.460327000     -0.867771000
C       -2.078737000      4.559677000     -0.644426000
H       -2.059261000      3.814476000     -1.431420000
C       -0.778436000     -4.317824000      5.793004000
H       -0.800960000     -5.085574000      6.556461000
C       -0.887757000     -2.979045000      6.147718000
H       -0.997355000     -2.688430000      7.187705000
C       -3.517658000     -0.260451000     -2.100285000
H       -3.715675000      0.343194000     -2.980707000
C       -2.060236000      6.360373000      1.392306000
H       -2.035191000      7.052648000      2.227821000
Au      0.232983000     -1.462116000      0.755839000
P       0.747290000      0.891784000     -2.799108000
P       1.259612000     -2.495519000     -1.074133000
N        2.952319000     -0.295074000     -1.521134000
C        2.898085000     -1.721365000     -1.604269000
H        3.092274000     -2.038343000     -2.628517000
H        3.663312000     -2.184962000     -0.981063000
C        1.717005000     -4.229462000     -0.657079000
N        0.863800000      1.988981000     -5.260476000
N        0.551363000     -1.772472000     -3.703127000
C        2.456135000     -5.868047000      0.907874000
H        2.745139000     -6.162660000      1.909964000
N        1.704231000     -5.106420000     -1.658132000
C        2.446040000     -6.787921000     -0.128606000
H        2.726740000     -7.821213000      0.033388000
C        1.490662000     -2.153392000     -4.666135000
C        2.575836000      0.440066000     -2.688919000
H        3.121233000      1.381778000     -2.755263000
H        2.826277000     -0.132920000     -3.581322000
C        3.019853000      1.737622000     -0.173469000
H        2.837580000      2.362343000     -1.036476000
C        0.636010000      4.639205000     -4.452963000
H        0.542790000      5.671365000     -4.135950000
C        3.433015000      1.645404000      2.220627000
C        3.384928000     -2.939358000     -6.632403000
C       -0.095338000     -0.499440000     -3.750227000
H       -0.202488000     -0.142027000     -4.774140000
H       -1.092002000     -0.579567000     -3.314915000
C        3.025321000     -3.784472000     -5.586582000
H        3.481969000     -4.767020000     -5.512333000
C        2.105814000     -3.412004000     -4.617549000
H        1.895866000     -4.108775000     -3.814638000
C        3.101496000      0.342493000     -0.290380000
C        3.187677000      2.362472000      1.052909000
H        3.119253000      3.445157000      1.093575000
C        1.865715000     -1.283408000     -5.699787000
H        1.467101000     -0.277325000     -5.759251000
C        0.197334000     -2.638136000     -2.622378000
H       -0.818253000     -2.414772000     -2.295999000
H        0.232728000     -3.688665000     -2.912597000
C        4.356789000     -3.367156000     -7.691436000
H        4.919066000     -2.516304000     -8.082060000
H        5.069311000     -4.098911000     -7.304997000
H        3.839045000     -3.831193000     -8.537323000
C        2.787773000     -1.682078000     -6.655663000
H        3.054897000     -0.978150000     -7.438317000
C        3.569909000      2.327123000      3.549519000
H        4.307888000      1.825829000      4.178947000
H        3.870302000      3.369573000      3.430559000
H        2.622841000      2.323710000      4.101345000
C        0.606413000      3.614396000     -3.517728000
H        0.489221000      3.824443000     -2.461198000
C        0.726575000      2.307179000     -3.974054000
C        3.354963000     -0.383305000      0.883664000
H        3.445083000     -1.460327000      0.867771000
C        2.078737000     -4.559677000      0.644426000
H        2.059261000     -3.814476000      1.431420000
C        0.778436000      4.317824000     -5.793004000
H        0.800960000      5.085574000     -6.556461000
C        0.887757000      2.979045000     -6.147718000
H        0.997355000      2.688430000     -7.187705000
C        3.517658000      0.260451000      2.100285000
H        3.715675000     -0.343194000      2.980707000
C        2.060236000     -6.360373000     -1.392306000
H        2.035191000     -7.052648000     -2.227821000
