68
Au2C28P2N4H30Cl2
Au       1.816818000     -0.020085000      0.853124000
P        1.954041000      0.087405000     -1.407043000
Cl       1.991271000     -0.184359000      3.194320000
N        0.066311000     -1.973283000     -1.786394000
C        0.109423000     -2.775200000     -0.643059000
C       -1.180423000     -1.502580000     -2.299608000
H       -1.934576000     -2.290460000     -2.269786000
H       -1.060140000     -1.229336000     -3.349913000
C       -1.008445000     -4.005143000      1.122850000
H       -1.942361000     -4.305874000      1.587525000
N        4.631679000      0.228206000     -1.082159000
C        0.245943000     -5.273831000      2.908042000
H       -0.631804000     -5.117567000      3.538369000
H        1.136278000     -5.068577000      3.506024000
H        0.270603000     -6.334762000      2.638592000
C        1.261806000     -1.405242000     -2.326721000
H        1.084960000     -1.108112000     -3.362185000
H        2.068329000     -2.139720000     -2.349416000
C        1.328403000     -3.181942000     -0.083063000
H        2.272913000     -2.874764000     -0.510528000
C        0.198974000     -4.405887000      1.686046000
C       -1.063353000     -3.210504000     -0.011369000
H       -2.038855000     -2.924559000     -0.379747000
C        1.360682000     -3.977496000      1.051112000
H        2.327569000     -4.256234000      1.458489000
C        5.284512000      0.204801000     -3.788991000
H        5.535033000      0.195289000     -4.843328000
C        5.897444000      0.284007000     -1.486356000
H        6.646852000      0.338596000     -0.702908000
C        6.274652000      0.273389000     -2.823266000
H        7.322483000      0.318383000     -3.093521000
C        3.958919000      0.148047000     -3.383208000
H        3.165632000      0.095775000     -4.119719000
C        3.684925000      0.160418000     -2.018491000
Au      -1.823466000     -0.020862000      0.852541000
P       -1.950065000     -0.027219000     -1.410693000
Cl      -2.013676000      0.021369000      3.197823000
N       -0.061052000      2.047964000     -1.701366000
C       -0.102581000      2.802978000     -0.526633000
C        1.184571000      1.598168000     -2.234800000
H        1.939145000      2.383878000     -2.175008000
H        1.062714000      1.365570000     -3.294650000
C        1.018434000      3.964259000      1.283104000
H        1.953082000      4.246139000      1.757986000
N       -4.629984000     -0.147992000     -1.097520000
C       -0.232331000      5.175550000      3.109685000
H        0.638599000      4.986702000      3.740594000
H       -1.129839000      4.963546000      3.694376000
H       -0.240158000      6.244942000      2.874781000
C       -1.256744000      1.503882000     -2.264444000
H       -1.080984000      1.251666000     -3.311798000
H       -2.063358000      2.238512000     -2.254968000
C       -1.320608000      3.189880000      0.049029000
H       -2.265563000      2.897840000     -0.388190000
C       -0.188118000      4.347970000      1.859986000
C        1.071346000      3.211323000      0.120812000
H        2.045970000      2.935784000     -0.257705000
C       -1.350912000      3.943918000      1.211325000
H       -2.317076000      4.210096000      1.628657000
C       -5.273850000     -0.067833000     -3.805232000
H       -5.520835000     -0.036558000     -4.859979000
C       -5.894907000     -0.184310000     -1.506468000
H       -6.647270000     -0.246231000     -0.726399000
C       -6.267696000     -0.146262000     -2.844091000
H       -7.314968000     -0.177829000     -3.118400000
C       -3.949122000     -0.029847000     -3.394412000
H       -3.153464000      0.030870000     -4.127705000
C       -3.679469000     -0.071587000     -2.029349000
