130
# Excited state, T0
Au      0.002663000      1.452628000      0.000164000
P      -2.278993000     -1.920472000     -0.110853000
P      -2.279111000      1.919590000     -0.110857000
N       -2.473765000     -0.000424000     -2.146065000
C       -3.070646000      1.222085000     -1.684878000
H       -4.127702000      1.054372000     -1.487933000
H       -2.999495000      2.001640000     -2.441634000
C       -2.794690000      3.689519000     -0.213549000
N       -4.024330000     -3.998762000      0.196803000
N       -3.992561000     -0.000408000      1.054167000
C       -2.291019000      5.955510000     -0.757535000
H       -1.614330000      6.716612000     -1.128496000
N       -4.022854000      3.998766000      0.201410000
C       -3.567097000      6.286876000     -0.328249000
H       -3.920566000      7.310284000     -0.351720000
C       -5.307033000      0.000212000      0.577555000
C       -3.070358000     -1.223150000     -1.685054000
H       -2.998699000     -2.002631000     -2.441838000
H       -4.127528000     -1.055786000     -1.488439000
C       -0.624008000     -1.212864000     -3.142787000
H       -1.071320000     -2.169552000     -2.917535000
C       -2.289627000     -5.957171000     -0.753478000
H       -1.611825000     -6.718927000     -1.121048000
C        1.204578000     -0.000073000     -4.179270000
C       -7.983601000      0.001167000     -0.377082000
C       -3.294563000     -1.222741000      1.310967000
H       -3.975263000     -2.014115000      1.624743000
H       -2.568659000     -1.062856000      2.109896000
C       -7.292070000      1.186033000     -0.142141000
H       -7.781034000      2.136773000     -0.333313000
C       -5.984488000      1.200571000      0.319489000
H       -5.495993000      2.159745000      0.445663000
C       -1.266327000     -0.000270000     -2.784225000
C        0.571873000     -1.197886000     -3.821953000
H        1.028449000     -2.143648000     -4.092465000
C       -5.984575000     -1.199813000      0.316892000
H       -5.495952000     -2.159198000      0.441048000
C       -3.293702000      1.221367000      1.311341000
H       -2.567126000      1.060446000      2.109442000
H       -3.973611000      2.012925000      1.626396000
C       -9.409038000      0.000922000     -0.842935000
H       -9.623542000     -0.869340000     -1.466931000
H       -9.639133000      0.899665000     -1.418901000
H      -10.100830000     -0.028791000      0.005306000
C       -7.291863000     -1.184401000     -0.144768000
H       -7.780658000     -2.134781000     -0.338267000
C        2.500127000      0.000012000     -4.921853000
H        2.596779000      0.888213000     -5.547895000
H        2.597144000     -0.888440000     -5.547475000
H        3.349839000      0.000357000     -4.229212000
C       -1.886677000     -4.631942000     -0.685842000
H       -0.887423000     -4.327704000     -0.978514000
C       -2.794417000     -3.690446000     -0.213702000
C       -0.624144000      1.212439000     -3.142683000
H       -1.071556000      2.169075000     -2.917396000
C       -1.888354000      4.630210000     -0.690054000
H       -0.890269000      4.325318000     -0.986055000
C       -3.567481000     -6.287570000     -0.328828000
H       -3.921292000     -7.310852000     -0.352652000
C       -4.394628000     -5.275545000      0.142022000
H       -5.398557000     -5.498654000      0.489599000
C        0.571776000      1.197641000     -3.821799000
H        1.028265000      2.143480000     -4.092190000
C       -4.392796000      5.275678000      0.146841000
H       -5.395263000      5.499556000      0.498123000
Au      0.002595000     -1.452823000      0.000667000
P       2.284662000      1.915612000      0.127556000
P       2.284861000     -1.914857000      0.127516000
N        2.487101000      0.000387000      2.170692000
C        3.072262000     -1.220570000      1.701952000
H        4.131776000     -1.063480000      1.506796000
H        2.998246000     -2.006428000      2.453427000
C        2.787428000     -3.689745000      0.205432000
N        4.016701000      4.000201000     -0.204870000
N        4.000933000      0.000404000     -1.051022000
C        2.279004000     -5.958130000      0.736881000
H        1.600024000     -6.719807000      1.102549000
N        4.016071000     -3.999827000     -0.208124000
C        3.555165000     -6.290075000      0.308219000
H        3.906499000     -7.314331000      0.326771000
C        5.316747000      0.000042000     -0.581454000
C        3.072007000      1.221546000      1.702095000
H        2.997672000      2.007335000      2.453604000
H        4.131591000      1.064725000      1.507134000
C        0.615412000      1.204386000      3.154504000
H        1.058193000      2.163250000      2.926549000
C        2.277007000      5.959558000      0.733057000
H        1.597008000      6.721657000      1.095942000
C       -1.219105000     -0.000312000      4.196707000
C        7.997712000     -0.000355000      0.357295000
C        3.299246000      1.221846000     -1.298955000
H        3.978035000      2.015889000     -1.609334000
H        2.573697000      1.062796000     -2.098260000
C        7.305138000     -1.186021000      0.126971000
H        7.795588000     -2.136299000      0.316185000
C        5.995543000     -1.200793000     -0.327004000
H        5.505442000     -2.159721000     -0.448579000
C        1.260508000      0.000172000      2.802437000
C       -0.585212000      1.190484000      3.838157000
H       -1.040120000      2.139388000      4.103232000
C        5.995322000      1.200833000     -0.324925000
H        5.504870000      2.159791000     -0.444940000
C        3.298777000     -1.220711000     -1.299243000
H        2.572837000     -1.061055000     -2.098060000
H        3.977121000     -2.014856000     -1.610346000
C        9.425490000      0.000207000      0.814483000
H        9.643723000      0.870735000      1.436747000
H        9.659494000     -0.898657000      1.388595000
H       10.111478000      0.030165000     -0.038510000
C        7.304617000      1.185730000      0.129119000
H        7.794651000      2.135858000      0.320279000
C       -2.524791000     -0.000549000      4.930116000
H       -2.624295000     -0.886658000      5.559325000
H       -2.625002000      0.885984000      5.558611000
H       -3.372994000     -0.001166000      4.236126000
C        1.877390000      4.633015000      0.672403000
H        0.879364000      4.327570000      0.967848000
C        2.786793000      3.690627000      0.205325000
C        0.615880000     -1.204297000      3.154508000
H        1.059067000     -2.162993000      2.926600000
C        1.879334000     -4.631620000      0.676105000
H        0.882188000     -4.325809000      0.974165000
C        3.554474000      6.290969000      0.307925000
H        3.905860000      7.315205000      0.326568000
C        4.384210000      5.278215000     -0.156151000
H        5.388201000      5.501560000     -0.503516000
C       -0.584767000     -1.190864000      3.838140000
H       -1.039294000     -2.139951000      4.103220000
C        4.383584000     -5.277845000     -0.159306000
H        5.386515000     -5.501613000     -0.509452000
