59
# Singlet ground state, https://doi.org/10.1039/D0CC04467A
Fe 1.000509 -0.852473 -0.227671
N 1.270093 -0.486905 -2.082363
N 2.101316 -2.467992 -0.725034
N -0.011834 0.889815 -0.377577
N 0.718119 -1.201293 1.627914
N -0.715831 -1.908859 -0.346111
N 2.625967 0.071562 0.533302
H -1.853779 4.215552 -1.108684
H 5.422125 1.826723 -0.100970
H 5.604061 1.694188 2.399817
H -0.647276 3.022909 -2.923001
C -1.337552 3.285082 -0.902479
C 4.673301 1.315422 0.492040
H -1.844283 3.224344 1.199918
C -0.663935 2.617841 -1.918480
C 4.770292 1.239745 1.876695
C -1.335201 2.739473 0.375870
H 0.481334 1.806200 -4.411843
H 3.486679 0.761707 -1.217353
C 3.588465 0.719236 -0.139555
C 0.914440 0.917422 -3.970277
C -0.009915 1.423327 -1.632843
C 3.780143 0.568721 2.584792
H 3.833796 0.491295 3.664107
C -0.661814 1.544471 0.595194
C 1.667843 0.040204 -4.746184
C 0.733284 0.628036 -2.619734
H -0.642683 1.096983 1.581480
C 2.717120 -0.004507 1.892374
C 2.213883 -1.107015 -4.176246
H 2.795873 -1.793588 -4.778152
H 2.109092 -0.559163 4.621230
C 1.990689 -1.353239 -2.823752
C 1.605968 -0.729145 2.527776
C 1.406091 -0.939125 3.890541
C 2.461714 -2.504560 -2.040380
H 3.481337 -3.563709 -3.611415
C 0.275811 -1.643958 4.298997
C 3.208294 -3.555818 -2.563421
C -0.381538 -1.883736 2.007964
H -0.976720 -1.924123 -2.396890
C 2.493811 -3.469686 0.075025
C -0.629913 -2.124547 3.357060
C -1.394572 -2.247132 -1.451619
H 2.195195 -3.406792 1.114094
C -1.206987 -2.298911 0.865046
C 3.603247 -4.591801 -1.725928
C 3.241811 -4.547114 -0.384086
H -1.508719 -2.672812 3.672771
H 4.185288 -5.418443 -2.117607
C -2.577289 -2.974655 -1.411279
H 3.532001 -5.329634 0.306509
C -2.388477 -3.025790 0.974627
H -3.083225 -3.223309 -2.336307
H -2.760198 -3.320780 1.948072
C -3.083433 -3.369958 -0.178546
H -4.004749 -3.937296 -0.112550
H 0.099151 -1.819180 5.354071
H 1.831082 0.251712 -5.796721