59
# Quintet Excited state, https://doi.org/10.1039/D0CC04467A
Fe 0.898670 -0.898856 -0.247264
N 1.255836 -0.463628 -2.323559
N 2.075367 -2.617867 -1.043389
N -0.284290 0.939033 -0.712196
N 0.676864 -1.247688 1.865439
N -0.962764 -2.073647 -0.018664
N 2.654453 0.065429 0.733074
H -2.124769 4.173011 -1.747302
H 5.494260 1.768986 0.148703
H 5.646878 1.576370 2.647780
H -0.620310 3.024378 -3.342492
C -1.610393 3.265343 -1.452412
C 4.728244 1.262348 0.723512
H -2.437253 3.194881 0.546414
C -0.766183 2.619638 -2.349122
C 4.807824 1.153424 2.106590
C -1.785563 2.728239 -0.182442
H 0.663776 1.933051 -4.607299
H 3.534647 0.764299 -1.001610
C 3.632163 0.701486 0.077257
C 1.061972 1.028166 -4.167743
C -0.119034 1.451328 -1.952461
C 3.796690 0.489632 2.793863
H 3.848835 0.390146 3.870801
C -1.100866 1.563221 0.144018
C 1.889490 0.196610 -4.913853
C 0.759832 0.666728 -2.854915
H -1.212079 1.113999 1.125597
C 2.725567 -0.042557 2.078517
C 2.390452 -0.972252 -4.352489
H 3.031307 -1.621982 -4.933936
H 2.184904 -0.548305 4.789430
C 2.045072 -1.284451 -3.037812
C 1.595482 -0.762196 2.719029
C 1.455614 -0.942219 4.093731
C 2.488366 -2.508922 -2.326175
H 3.588365 -3.402278 -3.955301
C 0.347204 -1.640350 4.564380
C 3.266928 -3.496853 -2.926160
C -0.398475 -1.923892 2.305641
H -1.423902 -2.178140 -2.030517
C 2.431292 -3.697154 -0.336941
C -0.590975 -2.141351 3.670965
C -1.746280 -2.460941 -1.033608
H 2.078697 -3.742998 0.687971
C -1.320499 -2.395549 1.245442
C 3.631907 -4.615967 -2.185935
C 3.211206 -4.719809 -0.865315
H -1.450003 -2.688599 4.036452
H 4.237462 -5.393571 -2.638292
C -2.916455 -3.186223 -0.845089
H 3.475676 -5.571972 -0.250750
C -2.482705 -3.119495 1.511619
H -3.514663 -3.478955 -1.699515
H -2.760562 -3.370944 2.527141
C -3.287878 -3.521335 0.452473
H -4.192773 -4.087639 0.641865
H 0.215819 -1.794985 5.629592
H 2.146367 0.461221 -5.933258