38
# PtPOP in triplet excited state, Gaussian, B3PW91, https://doi.org/10.1016/j.chemphys.2011.11.034
Pt 	  0.000000 	  0.000000	  1.383054 
Pt 	  0.000000 	  0.000000	 -1.382881 
 P 	  0.305103 	  2.343656	  1.483331 
 P 	 -0.305103 	 -2.343656	  1.483331 
 P 	  2.343681 	 -0.305078	  1.482494 
 P 	 -2.343681 	  0.305078	  1.482494 
 P 	 -0.305795 	 -2.343539	 -1.482644 
 P 	  0.305795 	  2.343539	 -1.482644 
 P 	 -2.343497 	  0.305638	 -1.483234 
 P 	  2.343497 	 -0.305638	 -1.483234 
 O 	  0.000000 	  3.029156	  0.000225 
 O 	  0.000000 	 -3.029156	  0.000225 
 O 	  3.029075 	  0.000969	 -0.000469 
 O 	 -3.029075 	 -0.000969	 -0.000469 
 O 	  1.661183 	  2.868211	  1.952950 
 O 	 -1.661183 	 -2.868211	  1.952950 
 O 	  2.868371 	 -1.661375	  1.951320 
 O 	 -2.868371 	  1.661375	  1.951320 
 O 	 -1.662175 	 -2.867870	 -1.951609 
 O 	  1.662175 	  2.867870	 -1.951609 
 O 	 -2.867952 	  1.662150	 -1.951656 
 O 	  2.867952 	 -1.662150	 -1.951656 
 O 	 -0.815270 	  3.105144	  2.353535 
 O 	  0.815270 	 -3.105144	  2.353535 
 O 	  3.105118 	  0.814878	  2.353257 
 O 	 -3.105118 	 -0.814878	  2.353257 
 O 	  0.814025 	 -3.105056	 -2.353552 
 O 	 -0.814025 	  3.105056	 -2.353552 
 O 	 -3.104890 	 -0.813974	 -2.354537 
 O 	  3.104890 	  0.813974	 -2.354537 
 H 	 -1.704189 	  2.622223	  2.247228 
 H 	  1.704189 	 -2.622223	  2.247228 
 H 	  2.622041 	  1.703820	  2.247727 
 H 	 -2.622041 	 -1.703820	  2.247727 
 H 	  1.703026 	 -2.622181	 -2.247960 
 H 	 -1.703026 	  2.622181	 -2.247960 
 H 	 -2.622145 	 -1.702997	 -2.248627 
 H 	  2.622145 	  1.702997	 -2.248627 