38
# PtPOP in ground state, Gaussian, B3PW91, https://doi.org/10.1016/j.chemphys.2011.11.034
Pt 	  0.000000 	  0.000000 	  1.483151  
Pt 	  0.000000 	  0.000000 	 -1.483145  
 P 	  0.300572 	  2.333922 	  1.514068  
 P 	 -0.300572 	 -2.333922 	  1.514068  
 P 	  2.333923 	 -0.300568 	  1.514064  
 P 	 -2.333923 	  0.300568 	  1.514064  
 P 	 -0.300633 	 -2.333907 	 -1.514063  
 P 	  0.300633 	  2.333907 	 -1.514063  
 P 	 -2.333908 	  0.300628 	 -1.514061  
 P 	  2.333908 	 -0.300628 	 -1.514061  
 O 	  0.000000 	  2.949879 	 -0.000007  
 O 	  0.000000 	 -2.949879 	 -0.000007  
 O 	  2.949875 	  0.000039 	 -0.000007  
 O 	 -2.949875 	 -0.000039 	 -0.000007  
 O 	  1.648515 	  2.885264 	  1.974668  
 O 	 -1.648515 	 -2.885264 	  1.974668  
 O 	  2.885269 	 -1.648517 	  1.974638  
 O 	 -2.885269 	  1.648517 	  1.974638  
 O 	 -1.648618 	 -2.885202 	 -1.974596  
 O 	  1.648618 	  2.885202 	 -1.974596  
 O 	 -2.885209 	  1.648620 	 -1.974567  
 O 	  2.885209 	 -1.648620 	 -1.974567  
 O 	 -0.830002 	  3.120589 	  2.348484  
 O 	  0.830002 	 -3.120589 	  2.348484  
 O 	  3.120585 	  0.829994 	  2.348501  
 O 	 -3.120585 	 -0.829994 	  2.348501  
 O 	  0.829882 	 -3.120584 	 -2.348551  
 O 	 -0.829882 	  3.120584 	 -2.348551  
 O 	 -3.120582 	 -0.829875 	 -2.348569  
 O 	  3.120582 	  0.829875 	 -2.348569  
 H 	 -1.715170 	  2.632557 	  2.250563  
 H 	  1.715170 	 -2.632557 	  2.250563  
 H 	  2.632552 	  1.715163 	  2.250594  
 H 	 -2.632552 	 -1.715163 	  2.250594  
 H 	  1.715064 	 -2.632558 	 -2.250700  
 H 	 -1.715064 	  2.632558 	 -2.250700  
 H 	 -2.632558 	 -1.715060 	 -2.250734  
 H 	  2.632558 	  1.715060 	 -2.250734  