61
#Quintet Excited state Geometry 5E-D3 (HS), https://doi.org/10.1039/C9CP01263J
Fe 0.000000 0.000000 0.000000
N 1.723395 0.758693 1.100672
N 1.723395 -0.758693 -1.100672
C 2.951756 0.438727 0.598554
C 1.640094 1.558078 2.185727
C 2.765123 2.072641 2.829598
C 4.028593 1.750199 2.321946
C 4.122592 0.929045 1.197207
C 2.951756 -0.438727 -0.598554
C 1.640094 -1.558078 -2.185727
C 2.765123 -2.072641 -2.829598
C 4.028593 -1.750199 -2.321946
C 4.122592 -0.929045 -1.197207
H 0.635251 1.779756 2.535628
H 2.646682 2.708134 3.703354
H 4.930632 2.132793 2.793889
H 5.097601 0.678356 0.791757
H 0.635251 -1.779756 -2.535628
H 2.646682 -2.708134 -3.703354
H 4.930632 -2.132793 -2.793889
H 5.097601 -0.678356 -0.791757
N -0.204650 -1.871850 1.100672
N -1.518744 -1.113157 -1.100672
C -1.095929 -2.775659 0.598554
C 0.529288 -2.199402 2.185727
C 0.412398 -3.430987 2.829598
C -0.498580 -4.363964 2.321946
C -1.256720 -4.034792 1.197207
C -1.855827 -2.336932 -0.598554
C -2.169382 -0.641324 -2.185727
C -3.177521 -1.358346 -2.829598
C -3.530014 -2.613765 -2.321946
C -2.865873 -3.105747 -1.197207
H 1.223688 -1.440021 2.535628
H 1.021971 -3.646161 3.703354
H -0.618263 -5.336449 2.793889
H -1.961327 -4.753830 0.791757
H -1.858939 0.339734 -2.535628
H -3.668653 -0.938027 -3.703354
H -4.312369 -3.203656 -2.793889
H -3.136274 -4.075474 -0.791757
N -1.518744 1.113157 1.100672
N -0.204650 1.871850 -1.100672
C -1.855827 2.336932 0.598554
C -2.169382 0.641324 2.185727
C -3.177521 1.358346 2.829598
C -3.530014 2.613765 2.321946
C -2.865873 3.105747 1.197207
C -1.095929 2.775659 -0.598554
C 0.529288 2.199402 -2.185727
C 0.412398 3.430987 -2.829598
C -0.498580 4.363964 -2.321946
C -1.256720 4.034792 -1.197207
H -1.858939 -0.339734 2.535628
H -3.668653 0.938027 3.703354
H -4.312369 3.203656 2.793889
H -3.136274 4.075474 0.791757
H 1.223688 1.440021 -2.535628
H 1.021971 3.646161 -3.703354
H -0.618263 5.336449 -2.793889
H -1.961327 4.753830 -0.791757