61
#Ground state Geometry 1A1-D3 (LS), https://doi.org/10.1039/C9CP01263J
Fe 0.000000 0.000000 0.000000
N 1.509294 0.765499 1.045382
N 1.509294 -0.765499 -1.045382
C 2.761708 0.438867 0.588215
C 1.405056 1.574647 2.127380
C 2.518122 2.075196 2.798964
C 3.796938 1.738398 2.342183
C 3.916144 0.913610 1.224147
C 2.761708 -0.438867 -0.588215
C 1.405056 -1.574647 -2.127380
C 2.518122 -2.075196 -2.798964
C 3.796938 -1.738398 -2.342183
C 3.916144 -0.913610 -1.224147
H 0.400446 1.809639 2.457852
H 2.373890 2.715977 3.664999
H 4.685286 2.111085 2.846163
H 4.896939 0.640182 0.847879
H 0.400446 -1.809639 -2.457852
H 2.373890 -2.715977 -3.664999
H 4.685286 -2.111085 -2.846163
H 4.896939 -0.640182 -0.847879
N -0.091706 -1.689836 1.045382
N -1.417588 -0.924337 -1.045382
C -1.000784 -2.611143 0.588215
C 0.661157 -2.004138 2.127380
C 0.538112 -3.218355 2.798964
C -0.392972 -4.157444 2.342183
C -1.166863 -3.848285 1.224147
C -1.760924 -2.172276 -0.588215
C -2.066213 -0.429490 -2.127380
C -3.056233 -1.143159 -2.798964
C -3.403966 -2.419046 -2.342183
C -2.749281 -2.934675 -1.224147
H 1.366971 -1.251616 2.457852
H 1.165160 -3.413838 3.664999
H -0.514390 -5.113119 2.846163
H -1.894055 -4.560965 0.847879
H -1.767416 0.558024 -2.457852
H -3.539050 -0.697861 -3.664999
H -4.170896 -3.002034 -2.846163
H -3.002884 -3.920783 -0.847879
N -1.417588 0.924337 1.045382
N -0.091706 1.689836 -1.045382
C -1.760924 2.172276 0.588215
C -2.066213 0.429490 2.127380
C -3.056233 1.143159 2.798964
C -3.403966 2.419046 2.342183
C -2.749281 2.934675 1.224147
C -1.000784 2.611143 -0.588215
C 0.661157 2.004138 -2.127380
C 0.538112 3.218355 -2.798964
C -0.392972 4.157444 -2.342183
C -1.166863 3.848285 -1.224147
H -1.767416 -0.558024 2.457852
H -3.539050 0.697861 3.664999
H -4.170896 3.002034 2.846163
H -3.002884 3.920783 0.847879
H 1.366971 1.251616 -2.457852
H 1.165160 3.413838 -3.664999
H -0.514390 5.113119 -2.846163
H -1.894055 4.560965 -0.847879